results/x-filo0/X-n143-k7.vrp_seed-11.vrp.sol
Route #1: 68 128 84 127 13
Route #2: 36 16 32 7 19 97 120 85 35 91 83 28 133 18 90 45 65 89 12 54 118
Route #3: 115 124 70 71 50 49 51 73 88 99 20 52 59 93 2 78 116 136 126
Route #4: 130 101 117 108 92 134 38 103 10 113 63 112 26 75 94 3 76 129 105 138 34 121 30 48
Route #5: 25 61 64 44 74 11 100 81 47 96 62 104 132 23 21 33 125 123 82 137 55 142 56 109
Route #6: 17 41 86 5 107 8 43 114 110 53 102 6 31 98 79 60 72 111 1 87 46 67 58 135 4
Route #7: 9 57 95 139 14 37 122 77 22 119 80 39 29 42 131 69 140 141 15 27 106 24 66 40
Cost 15848.000000